p tw 97 109
1 2
2 13
3 4
4 5
4 8
5 6
6 7
7 96
8 9
9 10
10 11
11 12
12 14
13 24
14 15
15 16
16 17
17 18
18 19
18 88
19 20
20 21
21 22
21 26
22 23
23 25
23 54
24 35
25 85
26 27
27 28
28 29
29 30
30 31
30 34
31 32
32 33
33 34
33 38
34 36
35 46
36 37
37 96
38 39
39 40
40 41
41 42
42 43
43 44
44 45
45 47
46 57
47 48
48 49
49 50
50 51
51 52
52 53
53 10
54 55
55 56
56 58
56 60
57 68
58 59
59 96
60 61
61 62
61 63
62 63
63 64
64 65
65 66
66 67
67 69
68 79
69 70
70 71
71 72
72 73
72 75
73 74
74 75
74 78
75 76
76 77
77 96
78 80
79 90
80 81
81 82
82 83
82 10
83 84
84 96
85 86
86 87
87 96
88 89
89 91
90 3
90 5
91 92
91 94
92 93
93 94
94 95
95 96
96 97
